1392533673069958126502,9,1,2,013,5,1,2,06,5,1,2,07,12,1,2,013,8,1,2,010,14,1,2,015,15,1,2,03,8,1,2,08,14,1,2,07,5,1,2,014,15,1,2,01,5,1,2,07,2,1,2,03,2,1,2,06,3,1,2,02,8,1,2,011,1,1,2,02,2,1,2,02,15,1,2,07,13,1,2,05,15,1,2,05,12,1,2,05,2,1,2,01,7,1,2,01,12,1,2,03,5,1,2,014,8,1,2,09,7,1,2,012,4,1,2,09,12,1,2,011,1,1,2,08,14,1,2,012,11,1,2,013,4,1,2,010,12,1,2,02,1,1,2,014,6,1,2,02,13,1,2,04,10,1,2,06,3,1,2,05,9,1,2,014,10,1,2,09,4,1,2,05,5,1,2,012,7,1,2,07,13,1,2,04,6,1,2,08,1,1,2,011,8,1,2,09,14,1,2,0